crystal
1.0
  11.6876792968    0.0000000000    0.0000000000
  -5.8438399130   10.1218270029    0.0000000000
   0.0000000000    0.0000000000   32.1572125942
   5   5   5  64
Direct
   0.79814607    0.69605559    0.32201505
   0.31739730    0.43366426    0.32449224
   0.21509914    0.18243666    0.32480290
   0.63251255    0.18470195    0.32102715
   0.79796013    0.30987643    0.31833036
   0.50540422    0.44513844    0.32568435
   0.52997057    0.33920616    0.32474002
   0.32053762    0.25160876    0.32504047
   0.66413085    0.37352392    0.32341908
   0.71833998    0.59339944    0.32315153
   0.36984889    0.38616388    0.32644995
   0.41366033    0.21910650    0.32451681
   0.75711992    0.50257592    0.32188818
   0.59550300    0.57417566    0.32539727
   0.70185523    0.28141831    0.32340879
   0.00000000    0.00000000    0.00000000
   0.00000001    0.25000000    0.00000000
   0.00000001    0.50000001    0.00000000
   0.00000002    0.75000001    0.00000000
   0.25000000    0.00000000    0.00000000
   0.25000001    0.25000000    0.00000000
   0.25000002    0.50000001    0.00000000
   0.25000002    0.75000001    0.00000000
   0.50000000    0.00000000    0.00000000
   0.50000001    0.25000000    0.00000000
   0.50000002    0.50000001    0.00000000
   0.50000002    0.75000001    0.00000000
   0.75000000    0.00000000    0.00000000
   0.75000001    0.25000000    0.00000000
   0.75000002    0.50000001    0.00000000
   0.75000002    0.75000001    0.00000000
   0.16666667    0.08333334    0.07472594
   0.16666668    0.33333334    0.07472594
   0.16666669    0.58333335    0.07472594
   0.16666670    0.83333335    0.07472594
   0.41666667    0.08333334    0.07472594
   0.41666668    0.33333334    0.07472594
   0.41666669    0.58333335    0.07472594
   0.41666669    0.83333335    0.07472594
   0.66666667    0.08333334    0.07472594
   0.66666668    0.33333334    0.07472594
   0.66666669    0.58333335    0.07472594
   0.66666670    0.83333335    0.07472594
   0.91666667    0.08333334    0.07472594
   0.91666668    0.33333334    0.07472594
   0.91666669    0.58333335    0.07472594
   0.91666669    0.83333335    0.07472594
   0.08337148    0.16708183    0.14902084
   0.08370363    0.41694732    0.14901790
   0.08382378    0.66705974    0.14910107
   0.08373633    0.91735060    0.14902560
   0.33345688    0.16700850    0.14898798
   0.33353824    0.41705120    0.14894980
   0.33366486    0.66702300    0.14909265
   0.33360194    0.91699029    0.14908496
   0.58371389    0.16692197    0.14900664
   0.58417438    0.41735566    0.14904844
   0.58388962    0.66755361    0.14896821
   0.58375324    0.91706999    0.14905241
   0.83381856    0.16707163    0.14903176
   0.83402388    0.41710434    0.14912381
   0.83404580    0.66743757    0.14906075
   0.83384960    0.91745137    0.14901248
   0.00088682    0.00109960    0.22491394
   0.00072095    0.25095970    0.22512674
   0.00147342    0.50090711    0.22483992
   0.00189712    0.75182089    0.22466438
   0.25112981    0.00119105    0.22473184
   0.24998374    0.25072534    0.22445073
   0.25088761    0.50080485    0.22491487
   0.25108288    0.75088787    0.22483362
   0.50076325    0.00084406    0.22469004
   0.50087121    0.25122998    0.22396981
   0.50120134    0.50155576    0.22386137
   0.50076834    0.75094569    0.22483482
   0.75074333    0.00080051    0.22490721
   0.75092953    0.25028712    0.22446661
   0.75265829    0.50218496    0.22424272
   0.75132586    0.75185225    0.22450101
