molecular plot                          
   1.00000000000000     
     2.7138509032639644    1.5668425495399640    4.5773092115067548
    -2.7138509032639644    1.5668425495399640    4.5773092115067548
     0.0000000000000000   -3.1336850990799179    4.5773092115067548
   2   2   6
Direct
  0.2500000000000000  0.2500000000000000  0.2500000000000000
  0.7500000000000000  0.7500000000000000  0.7500000000000000
  0.0000000000000000  0.0000000000000000  0.0000000000000000
  0.5000000000000000  0.5000000000000000  0.5000000000000000
  0.8237006981987365  0.6762993018012635  0.2500000000000000
  0.1762993018012635  0.3237006981987364  0.7500000000000000
  0.2500000000000000  0.8237006981987365  0.6762993018012635
  0.7500000000000000  0.1762993018012635  0.3237006981987364
  0.6762993018012635  0.2500000000000000  0.8237006981987365
  0.3237006981987364  0.7500000000000000  0.1762993018012636
 
  0.00000000E+00  0.00000000E+00  0.00000000E+00
  0.00000000E+00  0.00000000E+00  0.00000000E+00
  0.00000000E+00  0.00000000E+00  0.00000000E+00
  0.00000000E+00  0.00000000E+00  0.00000000E+00
  0.00000000E+00  0.00000000E+00  0.00000000E+00
  0.00000000E+00  0.00000000E+00  0.00000000E+00
  0.00000000E+00  0.00000000E+00  0.00000000E+00
  0.00000000E+00  0.00000000E+00  0.00000000E+00
  0.00000000E+00  0.00000000E+00  0.00000000E+00
  0.00000000E+00  0.00000000E+00  0.00000000E+00
