Si (100) surface, hydrogenated          
   1.00000000000000     
    15.4403836739999996    0.0000000000000000    0.0000000000000000
     0.0000000000000000   15.4403836739999996    0.0000000000000000
     0.0000000000000000    0.0000000000000000   35.0000000000000000
 127  47   1
Selective dynamics
Direct
  0.1112635268836159  0.0349218668541839  0.6263390672577128   T   T   T
  0.2729044879000000  0.0347867003000033  0.6206208571000005   F   F   F
  0.0769559892000018  0.1597822988999980  0.5859214286000025   F   F   F
  0.3125032449000003  0.1597926613999974  0.5857722857000027   F   F   F
  0.1945903717999968  0.1596696073999979  0.5429485713999966   F   F   F
  0.4448179620999966  0.1596974564999982  0.5503448571000007   F   F   F
  0.1944627843000006  0.0347465458999991  0.5050480000000022   F   F   F
  0.4448892038999972  0.0346040623999997  0.5102097142999966   F   F   F
  0.0670650432999977  0.0346707706000018  0.4684857143000016   F   F   F
  0.3222737274999972  0.0346539315999976  0.4688391429000021   F   F   F
  0.0685093080000030  0.1596676644999988  0.4294594285999978   F   F   F
  0.3208346440000014  0.1596424060000032  0.4299497143000011   F   F   F
  0.1953099134999974  0.1598334635000001  0.3907314285999988   F   F   F
  0.4439818430000031  0.1598334635000001  0.3907314285999988   F   F   F
  0.1953099134999974  0.0354978226000000  0.3519457143000011   F   F   F
  0.4439818430000031  0.0354978226000000  0.3519457143000011   F   F   F
  0.1168772770000004  0.2847420123000006  0.6207457142999999   F   F   F
  0.2729044879000000  0.2847867003000033  0.6206208571000005   F   F   F
  0.0769559892000018  0.4097822988999980  0.5859214286000025   F   F   F
  0.3125032449000003  0.4097926613999974  0.5857722857000027   F   F   F
  0.1945903717999968  0.4096696073999979  0.5429485713999966   F   F   F
  0.4448179620999966  0.4096974564999982  0.5503448571000007   F   F   F
  0.1944627843000006  0.2847465458999991  0.5050480000000022   F   F   F
  0.4448892038999972  0.2846040623999997  0.5102097142999966   F   F   F
  0.0670650432999977  0.2846707706000018  0.4684857143000016   F   F   F
  0.3222737274999972  0.2846539315999976  0.4688391429000021   F   F   F
  0.0685093080000030  0.4096676644999988  0.4294594285999978   F   F   F
  0.3208346440000014  0.4096424060000032  0.4299497143000011   F   F   F
  0.1953099134999974  0.4098334635000001  0.3907314285999988   F   F   F
  0.4439818430000031  0.4098334635000001  0.3907314285999988   F   F   F
  0.1953099134999974  0.2854978226000000  0.3519457143000011   F   F   F
  0.4439818430000031  0.2854978226000000  0.3519457143000011   F   F   F
  0.1168772770000004  0.5347420123000006  0.6207457142999999   F   F   F
  0.2729044879000000  0.5347867003000033  0.6206208571000005   F   F   F
  0.0769559892000018  0.6597822988999980  0.5859214286000025   F   F   F
  0.3125032449000003  0.6597926613999974  0.5857722857000027   F   F   F
  0.1945903717999968  0.6596696073999979  0.5429485713999966   F   F   F
  0.4448179620999966  0.6596974564999982  0.5503448571000007   F   F   F
  0.1944627843000006  0.5347465458999991  0.5050480000000022   F   F   F
  0.4448892038999972  0.5346040623999997  0.5102097142999966   F   F   F
  0.0670650432999977  0.5346707706000018  0.4684857143000016   F   F   F
  0.3222737274999972  0.5346539315999976  0.4688391429000021   F   F   F
  0.0685093080000030  0.6596676644999988  0.4294594285999978   F   F   F
  0.3208346440000014  0.6596424060000032  0.4299497143000011   F   F   F
  0.1953099134999974  0.6598334635000001  0.3907314285999988   F   F   F
  0.4439818430000031  0.6598334635000001  0.3907314285999988   F   F   F
  0.1953099134999974  0.5354978226000000  0.3519457143000011   F   F   F
  0.4439818430000031  0.5354978226000000  0.3519457143000011   F   F   F
  0.1168772770000004  0.7847420123000006  0.6207457142999999   F   F   F
  0.2729044879000000  0.7847867003000033  0.6206208571000005   F   F   F
  0.0769559892000018  0.9097822988999980  0.5859214286000025   F   F   F
  0.3125032449000003  0.9097926613999974  0.5857722857000027   F   F   F
  0.1945903717999968  0.9096696073999979  0.5429485713999966   F   F   F
  0.4448179620999966  0.9096974564999982  0.5503448571000007   F   F   F
  0.1944627843000006  0.7847465458999991  0.5050480000000022   F   F   F
  0.4448892038999972  0.7846040623999997  0.5102097142999966   F   F   F
  0.0670650432999977  0.7846707706000018  0.4684857143000016   F   F   F
  0.3222737274999972  0.7846539315999976  0.4688391429000021   F   F   F
  0.0685093080000030  0.9096676644999988  0.4294594285999978   F   F   F
  0.3208346440000014  0.9096424060000032  0.4299497143000011   F   F   F
  0.1953099134999974  0.9098334635000001  0.3907314285999988   F   F   F
  0.4439818430000031  0.9098334635000001  0.3907314285999988   F   F   F
  0.1953099134999974  0.7854978226000000  0.3519457143000011   F   F   F
  0.4439818430000031  0.7854978226000000  0.3519457143000011   F   F   F
  0.6168772770000004  0.0347420123000006  0.6207457142999999   F   F   F
  0.7729044879000000  0.0347867003000033  0.6206208571000005   F   F   F
  0.5769559892000018  0.1597822988999980  0.5859214286000025   F   F   F
  0.8125032449000003  0.1597926613999974  0.5857722857000027   F   F   F
  0.6945903717999968  0.1596696073999979  0.5429485713999966   F   F   F
  0.9448179620999966  0.1596974564999982  0.5503448571000007   F   F   F
  0.6944627843000006  0.0347465458999991  0.5050480000000022   F   F   F
  0.5670650432999977  0.0346707706000018  0.4684857143000016   F   F   F
  0.8222737274999972  0.0346539315999976  0.4688391429000021   F   F   F
  0.5685093080000030  0.1596676644999988  0.4294594285999978   F   F   F
  0.8208346440000014  0.1596424060000032  0.4299497143000011   F   F   F
  0.6953099134999974  0.1598334635000001  0.3907314285999988   F   F   F
  0.9439818430000031  0.1598334635000001  0.3907314285999988   F   F   F
  0.6953099134999974  0.0354978226000000  0.3519457143000011   F   F   F
  0.9439818430000031  0.0354978226000000  0.3519457143000011   F   F   F
  0.6168772770000004  0.2847420123000006  0.6207457142999999   F   F   F
  0.7729044879000000  0.2847867003000033  0.6206208571000005   F   F   F
  0.5769559892000018  0.4097822988999980  0.5859214286000025   F   F   F
  0.8125032449000003  0.4097926613999974  0.5857722857000027   F   F   F
  0.6945903717999968  0.4096696073999979  0.5429485713999966   F   F   F
  0.9448179620999966  0.4096974564999982  0.5503448571000007   F   F   F
  0.6944627843000006  0.2847465458999991  0.5050480000000022   F   F   F
  0.9448892038999972  0.2846040623999997  0.5102097142999966   F   F   F
  0.5670650432999977  0.2846707706000018  0.4684857143000016   F   F   F
  0.8222737274999972  0.2846539315999976  0.4688391429000021   F   F   F
  0.5685093080000030  0.4096676644999988  0.4294594285999978   F   F   F
  0.8208346440000014  0.4096424060000032  0.4299497143000011   F   F   F
  0.6953099134999974  0.4098334635000001  0.3907314285999988   F   F   F
  0.9439818430000031  0.4098334635000001  0.3907314285999988   F   F   F
  0.6953099134999974  0.2854978226000000  0.3519457143000011   F   F   F
  0.9439818430000031  0.2854978226000000  0.3519457143000011   F   F   F
  0.6168772770000004  0.5347420123000006  0.6207457142999999   F   F   F
  0.7729044879000000  0.5347867003000033  0.6206208571000005   F   F   F
  0.5769559892000018  0.6597822988999980  0.5859214286000025   F   F   F
  0.8125032449000003  0.6597926613999974  0.5857722857000027   F   F   F
  0.6945903717999968  0.6596696073999979  0.5429485713999966   F   F   F
  0.9448179620999966  0.6596974564999982  0.5503448571000007   F   F   F
  0.6944627843000006  0.5347465458999991  0.5050480000000022   F   F   F
  0.9448892038999972  0.5346040623999997  0.5102097142999966   F   F   F
  0.5670650432999977  0.5346707706000018  0.4684857143000016   F   F   F
  0.8222737274999972  0.5346539315999976  0.4688391429000021   F   F   F
  0.5685093080000030  0.6596676644999988  0.4294594285999978   F   F   F
  0.8208346440000014  0.6596424060000032  0.4299497143000011   F   F   F
  0.6953099134999974  0.6598334635000001  0.3907314285999988   F   F   F
  0.9439818430000031  0.6598334635000001  0.3907314285999988   F   F   F
  0.6953099134999974  0.5354978226000000  0.3519457143000011   F   F   F
  0.9439818430000031  0.5354978226000000  0.3519457143000011   F   F   F
  0.6168772770000004  0.7847420123000006  0.6207457142999999   F   F   F
  0.7729044879000000  0.7847867003000033  0.6206208571000005   F   F   F
  0.5769559892000018  0.9097822988999980  0.5859214286000025   F   F   F
  0.8125032449000003  0.9097926613999974  0.5857722857000027   F   F   F
  0.6945903717999968  0.9096696073999979  0.5429485713999966   F   F   F
  0.9448179620999966  0.9096974564999982  0.5503448571000007   F   F   F
  0.6944627843000006  0.7847465458999991  0.5050480000000022   F   F   F
  0.9448892038999972  0.7846040623999997  0.5102097142999966   F   F   F
  0.5670650432999977  0.7846707706000018  0.4684857143000016   F   F   F
  0.8222737274999972  0.7846539315999976  0.4688391429000021   F   F   F
  0.5685093080000030  0.9096676644999988  0.4294594285999978   F   F   F
  0.8208346440000014  0.9096424060000032  0.4299497143000011   F   F   F
  0.6953099134999974  0.9098334635000001  0.3907314285999988   F   F   F
  0.9439818430000031  0.9098334635000001  0.3907314285999988   F   F   F
  0.6953099134999974  0.7854978226000000  0.3519457143000011   F   F   F
  0.9439818430000031  0.7854978226000000  0.3519457143000011   F   F   F
  0.1175786845000033  0.0354978226000000  0.3276971429000000   F   F   F
  0.2730411426000003  0.0354978226000000  0.3276971429000000   F   F   F
  0.3662506139000001  0.0354978226000000  0.3276971429000000   F   F   F
  0.0217131910000035  0.0354978226000000  0.3276971429000000   F   F   F
  0.3075933928000012  0.0339622389999974  0.6608245713999992   F   F   F
  0.1175786845000033  0.2854978226000000  0.3276971429000000   F   F   F
  0.2730411426000003  0.2854978226000000  0.3276971429000000   F   F   F
  0.3662506139000001  0.2854978226000000  0.3276971429000000   F   F   F
  0.0217131910000035  0.2854978226000000  0.3276971429000000   F   F   F
  0.0826631012999997  0.2839777825999974  0.6609328571000006   F   F   F
  0.3075933928000012  0.2839622389999974  0.6608245713999992   F   F   F
  0.1175786845000033  0.5354978226000000  0.3276971429000000   F   F   F
  0.2730411426000003  0.5354978226000000  0.3276971429000000   F   F   F
  0.3662506139000001  0.5354978226000000  0.3276971429000000   F   F   F
  0.0217131910000035  0.5354978226000000  0.3276971429000000   F   F   F
  0.0826631012999997  0.5339777825999974  0.6609328571000006   F   F   F
  0.3075933928000012  0.5339622389999974  0.6608245713999992   F   F   F
  0.1175786845000033  0.7854978226000000  0.3276971429000000   F   F   F
  0.2730411426000003  0.7854978226000000  0.3276971429000000   F   F   F
  0.3662506139000001  0.7854978226000000  0.3276971429000000   F   F   F
  0.0217131910000035  0.7854978226000000  0.3276971429000000   F   F   F
  0.0826631012999997  0.7839777825999974  0.6609328571000006   F   F   F
  0.3075933928000012  0.7839622389999974  0.6608245713999992   F   F   F
  0.6175786845000033  0.0354978226000000  0.3276971429000000   F   F   F
  0.7730411426000003  0.0354978226000000  0.3276971429000000   F   F   F
  0.8662506139000001  0.0354978226000000  0.3276971429000000   F   F   F
  0.5217131910000035  0.0354978226000000  0.3276971429000000   F   F   F
  0.5826631012999997  0.0339777825999974  0.6609328571000006   F   F   F
  0.8075933928000012  0.0339622389999974  0.6608245713999992   F   F   F
  0.6175786845000033  0.2854978226000000  0.3276971429000000   F   F   F
  0.7730411426000003  0.2854978226000000  0.3276971429000000   F   F   F
  0.8662506139000001  0.2854978226000000  0.3276971429000000   F   F   F
  0.5217131910000035  0.2854978226000000  0.3276971429000000   F   F   F
  0.5826631012999997  0.2839777825999974  0.6609328571000006   F   F   F
  0.8075933928000012  0.2839622389999974  0.6608245713999992   F   F   F
  0.6175786845000033  0.5354978226000000  0.3276971429000000   F   F   F
  0.7730411426000003  0.5354978226000000  0.3276971429000000   F   F   F
  0.8662506139000001  0.5354978226000000  0.3276971429000000   F   F   F
  0.5217131910000035  0.5354978226000000  0.3276971429000000   F   F   F
  0.5826631012999997  0.5339777825999974  0.6609328571000006   F   F   F
  0.8075933928000012  0.5339622389999974  0.6608245713999992   F   F   F
  0.6175786845000033  0.7854978226000000  0.3276971429000000   F   F   F
  0.7730411426000003  0.7854978226000000  0.3276971429000000   F   F   F
  0.8662506139000001  0.7854978226000000  0.3276971429000000   F   F   F
  0.5217131910000035  0.7854978226000000  0.3276971429000000   F   F   F
  0.5826631012999997  0.7839777825999974  0.6609328571000006   F   F   F
  0.8075933928000012  0.7839622389999974  0.6608245713999992   F   F   F
  0.9448892038999972  0.0346040623999997  0.5102097142999966   F   F   F
 
  0.00000000E+00  0.00000000E+00  0.00000000E+00
  0.00000000E+00  0.00000000E+00  0.00000000E+00
  0.00000000E+00  0.00000000E+00  0.00000000E+00
  0.00000000E+00  0.00000000E+00  0.00000000E+00
  0.00000000E+00  0.00000000E+00  0.00000000E+00
  0.00000000E+00  0.00000000E+00  0.00000000E+00
  0.00000000E+00  0.00000000E+00  0.00000000E+00
  0.00000000E+00  0.00000000E+00  0.00000000E+00
  0.00000000E+00  0.00000000E+00  0.00000000E+00
  0.00000000E+00  0.00000000E+00  0.00000000E+00
  0.00000000E+00  0.00000000E+00  0.00000000E+00
  0.00000000E+00  0.00000000E+00  0.00000000E+00
  0.00000000E+00  0.00000000E+00  0.00000000E+00
  0.00000000E+00  0.00000000E+00  0.00000000E+00
  0.00000000E+00  0.00000000E+00  0.00000000E+00
  0.00000000E+00  0.00000000E+00  0.00000000E+00
  0.00000000E+00  0.00000000E+00  0.00000000E+00
  0.00000000E+00  0.00000000E+00  0.00000000E+00
  0.00000000E+00  0.00000000E+00  0.00000000E+00
  0.00000000E+00  0.00000000E+00  0.00000000E+00
  0.00000000E+00  0.00000000E+00  0.00000000E+00
  0.00000000E+00  0.00000000E+00  0.00000000E+00
  0.00000000E+00  0.00000000E+00  0.00000000E+00
  0.00000000E+00  0.00000000E+00  0.00000000E+00
  0.00000000E+00  0.00000000E+00  0.00000000E+00
  0.00000000E+00  0.00000000E+00  0.00000000E+00
  0.00000000E+00  0.00000000E+00  0.00000000E+00
  0.00000000E+00  0.00000000E+00  0.00000000E+00
  0.00000000E+00  0.00000000E+00  0.00000000E+00
  0.00000000E+00  0.00000000E+00  0.00000000E+00
  0.00000000E+00  0.00000000E+00  0.00000000E+00
  0.00000000E+00  0.00000000E+00  0.00000000E+00
  0.00000000E+00  0.00000000E+00  0.00000000E+00
  0.00000000E+00  0.00000000E+00  0.00000000E+00
  0.00000000E+00  0.00000000E+00  0.00000000E+00
  0.00000000E+00  0.00000000E+00  0.00000000E+00
  0.00000000E+00  0.00000000E+00  0.00000000E+00
  0.00000000E+00  0.00000000E+00  0.00000000E+00
  0.00000000E+00  0.00000000E+00  0.00000000E+00
  0.00000000E+00  0.00000000E+00  0.00000000E+00
  0.00000000E+00  0.00000000E+00  0.00000000E+00
  0.00000000E+00  0.00000000E+00  0.00000000E+00
  0.00000000E+00  0.00000000E+00  0.00000000E+00
  0.00000000E+00  0.00000000E+00  0.00000000E+00
  0.00000000E+00  0.00000000E+00  0.00000000E+00
  0.00000000E+00  0.00000000E+00  0.00000000E+00
  0.00000000E+00  0.00000000E+00  0.00000000E+00
  0.00000000E+00  0.00000000E+00  0.00000000E+00
  0.00000000E+00  0.00000000E+00  0.00000000E+00
  0.00000000E+00  0.00000000E+00  0.00000000E+00
  0.00000000E+00  0.00000000E+00  0.00000000E+00
  0.00000000E+00  0.00000000E+00  0.00000000E+00
  0.00000000E+00  0.00000000E+00  0.00000000E+00
  0.00000000E+00  0.00000000E+00  0.00000000E+00
  0.00000000E+00  0.00000000E+00  0.00000000E+00
  0.00000000E+00  0.00000000E+00  0.00000000E+00
  0.00000000E+00  0.00000000E+00  0.00000000E+00
  0.00000000E+00  0.00000000E+00  0.00000000E+00
  0.00000000E+00  0.00000000E+00  0.00000000E+00
  0.00000000E+00  0.00000000E+00  0.00000000E+00
  0.00000000E+00  0.00000000E+00  0.00000000E+00
  0.00000000E+00  0.00000000E+00  0.00000000E+00
  0.00000000E+00  0.00000000E+00  0.00000000E+00
  0.00000000E+00  0.00000000E+00  0.00000000E+00
  0.00000000E+00  0.00000000E+00  0.00000000E+00
  0.00000000E+00  0.00000000E+00  0.00000000E+00
  0.00000000E+00  0.00000000E+00  0.00000000E+00
  0.00000000E+00  0.00000000E+00  0.00000000E+00
  0.00000000E+00  0.00000000E+00  0.00000000E+00
  0.00000000E+00  0.00000000E+00  0.00000000E+00
  0.00000000E+00  0.00000000E+00  0.00000000E+00
  0.00000000E+00  0.00000000E+00  0.00000000E+00
  0.00000000E+00  0.00000000E+00  0.00000000E+00
  0.00000000E+00  0.00000000E+00  0.00000000E+00
  0.00000000E+00  0.00000000E+00  0.00000000E+00
  0.00000000E+00  0.00000000E+00  0.00000000E+00
  0.00000000E+00  0.00000000E+00  0.00000000E+00
  0.00000000E+00  0.00000000E+00  0.00000000E+00
  0.00000000E+00  0.00000000E+00  0.00000000E+00
  0.00000000E+00  0.00000000E+00  0.00000000E+00
  0.00000000E+00  0.00000000E+00  0.00000000E+00
  0.00000000E+00  0.00000000E+00  0.00000000E+00
  0.00000000E+00  0.00000000E+00  0.00000000E+00
  0.00000000E+00  0.00000000E+00  0.00000000E+00
  0.00000000E+00  0.00000000E+00  0.00000000E+00
  0.00000000E+00  0.00000000E+00  0.00000000E+00
  0.00000000E+00  0.00000000E+00  0.00000000E+00
  0.00000000E+00  0.00000000E+00  0.00000000E+00
  0.00000000E+00  0.00000000E+00  0.00000000E+00
  0.00000000E+00  0.00000000E+00  0.00000000E+00
  0.00000000E+00  0.00000000E+00  0.00000000E+00
  0.00000000E+00  0.00000000E+00  0.00000000E+00
  0.00000000E+00  0.00000000E+00  0.00000000E+00
  0.00000000E+00  0.00000000E+00  0.00000000E+00
  0.00000000E+00  0.00000000E+00  0.00000000E+00
  0.00000000E+00  0.00000000E+00  0.00000000E+00
  0.00000000E+00  0.00000000E+00  0.00000000E+00
  0.00000000E+00  0.00000000E+00  0.00000000E+00
  0.00000000E+00  0.00000000E+00  0.00000000E+00
  0.00000000E+00  0.00000000E+00  0.00000000E+00
  0.00000000E+00  0.00000000E+00  0.00000000E+00
  0.00000000E+00  0.00000000E+00  0.00000000E+00
  0.00000000E+00  0.00000000E+00  0.00000000E+00
  0.00000000E+00  0.00000000E+00  0.00000000E+00
  0.00000000E+00  0.00000000E+00  0.00000000E+00
  0.00000000E+00  0.00000000E+00  0.00000000E+00
  0.00000000E+00  0.00000000E+00  0.00000000E+00
  0.00000000E+00  0.00000000E+00  0.00000000E+00
  0.00000000E+00  0.00000000E+00  0.00000000E+00
  0.00000000E+00  0.00000000E+00  0.00000000E+00
  0.00000000E+00  0.00000000E+00  0.00000000E+00
  0.00000000E+00  0.00000000E+00  0.00000000E+00
  0.00000000E+00  0.00000000E+00  0.00000000E+00
  0.00000000E+00  0.00000000E+00  0.00000000E+00
  0.00000000E+00  0.00000000E+00  0.00000000E+00
  0.00000000E+00  0.00000000E+00  0.00000000E+00
  0.00000000E+00  0.00000000E+00  0.00000000E+00
  0.00000000E+00  0.00000000E+00  0.00000000E+00
  0.00000000E+00  0.00000000E+00  0.00000000E+00
  0.00000000E+00  0.00000000E+00  0.00000000E+00
  0.00000000E+00  0.00000000E+00  0.00000000E+00
  0.00000000E+00  0.00000000E+00  0.00000000E+00
  0.00000000E+00  0.00000000E+00  0.00000000E+00
  0.00000000E+00  0.00000000E+00  0.00000000E+00
  0.00000000E+00  0.00000000E+00  0.00000000E+00
  0.00000000E+00  0.00000000E+00  0.00000000E+00
  0.00000000E+00  0.00000000E+00  0.00000000E+00
  0.00000000E+00  0.00000000E+00  0.00000000E+00
  0.00000000E+00  0.00000000E+00  0.00000000E+00
  0.00000000E+00  0.00000000E+00  0.00000000E+00
  0.00000000E+00  0.00000000E+00  0.00000000E+00
  0.00000000E+00  0.00000000E+00  0.00000000E+00
  0.00000000E+00  0.00000000E+00  0.00000000E+00
  0.00000000E+00  0.00000000E+00  0.00000000E+00
  0.00000000E+00  0.00000000E+00  0.00000000E+00
  0.00000000E+00  0.00000000E+00  0.00000000E+00
  0.00000000E+00  0.00000000E+00  0.00000000E+00
  0.00000000E+00  0.00000000E+00  0.00000000E+00
  0.00000000E+00  0.00000000E+00  0.00000000E+00
  0.00000000E+00  0.00000000E+00  0.00000000E+00
  0.00000000E+00  0.00000000E+00  0.00000000E+00
  0.00000000E+00  0.00000000E+00  0.00000000E+00
  0.00000000E+00  0.00000000E+00  0.00000000E+00
  0.00000000E+00  0.00000000E+00  0.00000000E+00
  0.00000000E+00  0.00000000E+00  0.00000000E+00
  0.00000000E+00  0.00000000E+00  0.00000000E+00
  0.00000000E+00  0.00000000E+00  0.00000000E+00
  0.00000000E+00  0.00000000E+00  0.00000000E+00
  0.00000000E+00  0.00000000E+00  0.00000000E+00
  0.00000000E+00  0.00000000E+00  0.00000000E+00
  0.00000000E+00  0.00000000E+00  0.00000000E+00
  0.00000000E+00  0.00000000E+00  0.00000000E+00
  0.00000000E+00  0.00000000E+00  0.00000000E+00
  0.00000000E+00  0.00000000E+00  0.00000000E+00
  0.00000000E+00  0.00000000E+00  0.00000000E+00
  0.00000000E+00  0.00000000E+00  0.00000000E+00
  0.00000000E+00  0.00000000E+00  0.00000000E+00
  0.00000000E+00  0.00000000E+00  0.00000000E+00
  0.00000000E+00  0.00000000E+00  0.00000000E+00
  0.00000000E+00  0.00000000E+00  0.00000000E+00
  0.00000000E+00  0.00000000E+00  0.00000000E+00
  0.00000000E+00  0.00000000E+00  0.00000000E+00
  0.00000000E+00  0.00000000E+00  0.00000000E+00
  0.00000000E+00  0.00000000E+00  0.00000000E+00
  0.00000000E+00  0.00000000E+00  0.00000000E+00
  0.00000000E+00  0.00000000E+00  0.00000000E+00
  0.00000000E+00  0.00000000E+00  0.00000000E+00
  0.00000000E+00  0.00000000E+00  0.00000000E+00
  0.00000000E+00  0.00000000E+00  0.00000000E+00
  0.00000000E+00  0.00000000E+00  0.00000000E+00
  0.00000000E+00  0.00000000E+00  0.00000000E+00
  0.00000000E+00  0.00000000E+00  0.00000000E+00
  0.00000000E+00  0.00000000E+00  0.00000000E+00
  0.00000000E+00  0.00000000E+00  0.00000000E+00
  0.00000000E+00  0.00000000E+00  0.00000000E+00
