crystal
1.0
   4.9140000000    0.0000000000    0.0000000000
  -2.4570000000    4.2556488342    0.0000000000
   0.0000000000    0.0000000000    5.4060000000
   6   3
Direct
   0.41300000    0.26680000    0.21400000
   0.73320000    0.14620000    0.54733333
   0.85380000    0.58700000    0.88066667
   0.26680000    0.41300000    0.78600000
   0.58700000    0.85380000    0.11933333
   0.14620000    0.73320000    0.45266667
   0.46990000    0.00000000    0.33333000
   1.00000000    0.46990000    0.66666333
   0.53010000    0.53010000    0.99999667
